scheduleLength  = 7;
numberEmployees = 47;
numberShifts    = 3;
minDaysOff      = 2;
maxDaysOff      = 4;
minDaysWork     = 2;
maxDaysWork     = 7;
shiftNames      = ["D", "A", "N"];
minDaysShift    = [2, 2, 2];
maxDaysShift    = [7, 7, 6];

requirements = [| 15, 15, 15, 15, 15, 6, 0,
                | 15, 15, 15, 15, 15, 6, 0,
                | 9, 9, 9, 9, 6, 0, 9 |];

numberForbiddenShifts2 = 3;
forbiddenShifts2 = [| 3, 1,
                    | 3, 2,
                    | 2, 1 |];

numberForbiddenShifts3 = 0;
forbiddenShifts3 = array2d({},1..2,[]);

